NAME          HOTMIX2
ROWS
 G  N
 G  AM-N
 G  NI-N
 G  UR-N
 G  SRN
 G  P
 G  K
 G  S
 G  ZN
 G  B
 L  CL
 G  WATR
 G  DEN
 G  MINA
 G  MAXA
 E  HCAP
 E  HSOL
 E  HREA
 G  MINT
 G  MAXT
 G  32F
 G  77F
 G  32FK
 G  77FK
 E  WT
 N  COST
 N  PRICE
COLUMNS
*234567890123456789012345678901234567890123456789012345678901
    EVAP      WATR         -1.000000   DEN          -0.120048   
    EVAP      HCAP         -1.000000   HSOL         -0.400000   
    EVAP      32F           1.000000   77F           1.000000   
    EVAP      32FK          1.000000   77FK          1.000000   
    EVAP      WT           -1.000000   COST         25.000000   
    EVAP      PRICE        25.000000   SCALE      2000.000000   
    WATER     WATR          1.000000   DEN           0.120048   
    WATER     HCAP          1.000000   HSOL          0.400000   
    WATER     32F          -1.000000   77F          -1.000000   
    WATER     32FK         -1.000000   77FK         -1.000000   
    WATER     WT            1.000000   COST          0.100000   
    WATER     PRICE         0.125000   SCALE      2000.000000   
    HOTWATER  WATR          1.000000   DEN           0.120048   
    HOTWATER  HCAP          1.000000   HREA          1.260000   
    HOTWATER  32F          -1.000000   77F          -1.000000   
    HOTWATER  32FK         -1.000000   77FK         -1.000000   
    HOTWATER  WT            1.000000   COST          0.250000   
    HOTWATER  PRICE         0.312500   SCALE      2000.000000   
    I320000   N             0.320000   AM-N          0.080000   
    I320000   NI-N          0.080000   UR-N          0.160000   
    I320000   WATR          0.200000   DEN           0.090262   
    I320000   HCAP          0.492000   32F          -0.107143   
    I320000   77F          -0.232982   32FK          0.632653   
    I320000   77FK         -0.126638   WT            1.000000   
    I320000   COST        102.000000   PRICE       127.500000   
    I320000   SCALE      2000.000000   
    I100000   N             0.100000   AM-N          0.100000   
    I100000   S             0.050000   ZN            0.100000   
    I100000   WATR          0.630000   DEN           0.094526   
    I100000   HCAP          0.740000   77F          -0.119048   
    I100000   77FK         -0.119048   WT            1.000000   
    I100000   COST        190.000000   PRICE       237.500000   
    I100000   SCALE      2000.000000   
    I120000   N             0.120000   AM-N          0.120000   
    I120000   S             0.260000   WATR          0.400000   
    I120000   DEN           0.090262   HCAP          0.440000   
    I120000   32F           0.005025   77F          -0.104478   
    I120000   32FK          0.005025   77FK         -0.104478   
    I120000   WT            1.000000   COST        135.000000   
    I120000   PRICE       168.750000   SCALE      2000.000000   
    INSUR30   N             0.300000   UR-N          0.150000   
    INSUR30   SRN           0.150000   WATR          0.304000   
    INSUR30   DEN           0.092345   HCAP          0.500000   
    INSUR30   32F          -0.005714   77F          -0.059459   
    INSUR30   32FK         -0.005714   77FK         -0.059459   
    INSUR30   WT            1.000000   COST        480.000000   
    INSUR30   PRICE       600.000000   SCALE      2000.000000   
    I005400   P             0.540000   WATR          0.250000   
    I005400   DEN           0.065600   MINA          0.130000   
    I005400   MAXA          0.219000   HCAP          0.860000   
    I005400   HREA          2.662000   32F           0.861042   
    I005400   77F           0.829268   32FK          0.861042   
    I005400   77FK          0.829268   WT            1.000000   
    I005400   COST        165.000000   PRICE       206.250000   
    I005400   SCALE      2000.000000   
    IH2SO4    S             0.326000   WATR          0.020000   
    IH2SO4    DEN           0.064891   MINA          0.324000   
    IH2SO4    MAXA          0.324000   HCAP          0.350000   
    IH2SO4    HREA          8.940000   32F           2.091480   
    IH2SO4    77F           1.951810   32FK         17.490600   
    IH2SO4    77FK         14.555600   WT            1.000000   
    IH2SO4    COST         50.000000   PRICE        62.500000   
    IH2SO4    SCALE      2000.000000   
    I115200   N             0.110000   AM-N          0.110000   
    I115200   P             0.520000   DEN           0.066693   
    I115200   MINA          0.077000   MAXA          0.077000   
    I115200   HCAP          0.300000   HSOL          0.800000   
    I115200   32F           4.617980   77F           2.472220   
    I115200   32FK          4.617980   77FK          2.472220   
    I115200   WT            1.000000   COST        183.000000   
    I115200   PRICE       203.000000   SCALE      2000.000000   
    I820000   N             0.822000   AM-N          0.822000   
    I820000   DEN           0.146400   MINA         -1.000000   
    I820000   MAXA         -0.999900   HCAP          1.150000   
    I820000   HREA         27.600000   WT            1.000000   
    I820000   COST        160.000000   PRICE       200.000000   
    I820000   SCALE      2000.000000   
    I200000   N             0.200000   AM-N          0.200000   
    I200000   WATR          0.757000   DEN           0.133387   
    I200000   MINA         -0.243000   MAXA         -0.243000   
    I200000   HCAP          0.990000   HREA          5.164000   
    I200000   32F          -0.757000   77F          -0.757000   
    I200000   32FK         -0.757000   77FK         -0.757000   
    I200000   WT            1.000000   COST         40.000000   
    I200000   PRICE        50.000000   SCALE      2000.000000   
    I103400   N             0.100000   AM-N          0.100000   
    I103400   P             0.340000   WATR          0.423000   
    I103400   DEN           0.085749   HCAP          0.578000   
    I103400   32F          -0.022034   77F          -0.057190   
    I103400   32FK         -0.022034   77FK         -0.057190   
    I103400   WT            1.000000   COST        190.000000   
    I103400   PRICE       237.500000   SCALE      2000.000000   
    I130044   N             0.137000   NI-N          0.137000   
    I130044   K             0.445000   DEN           0.056895   
    I130044   HCAP          0.285000   HSOL          3.080000   
    I130044   32F           7.547010   77F           2.571430   
    I130044   32FK          7.547010   77FK          2.571430   
    I130044   WT            1.000000   COST        277.000000   
    I130044   PRICE       346.250000   SCALE      2000.000000   
    I460000   N             0.460000   UR-N          0.460000   
    I460000   DEN           0.089588   HCAP          0.320000   
    I460000   HSOL          2.160000   32F           1.421310   
    I460000   77F           0.838235   32FK          1.421310   
    I460000   77FK          0.838235   WT            1.000000   
    I460000   COST        160.000000   PRICE       180.000000   
    I460000   SCALE      2000.000000   
    I000062   K             0.624000   CL            0.480000   
    I000062   DEN           0.060024   HCAP          0.162000   
    I000062   HSOL          2.120000   32F           3.424780   
    I000062   77F           2.690040   32FK          3.424780   
    I000062   77FK          2.690040   WT            1.000000   
    I000062   COST         90.000000   PRICE       112.500000   
    I000062   SCALE      2000.000000   
    I000025   K             0.250000   S             0.170000   
    I000025   WATR          0.510000   DEN           0.082225   
    I000025   HCAP          0.600000   32F          -0.014085   
    I000025   77F          -0.195402   32FK         -0.014085   
    I000025   77FK         -0.195402   WT            1.000000   
    I000025   COST        500.000000   PRICE       625.000000   
    I000025   SCALE      2000.000000   
    I20B000   B             0.205000   DEN           0.088924   
    I20B000   HCAP          0.700000   HSOL          1.000000   
    I20B000   32F           4.555560   77F           2.472220   
    I20B000   32FK          4.555560   77FK          2.472220   
    I20B000   WT            1.000000   COST        920.000000   
    I20B000   PRICE      1150.000000   SCALE      2000.000000   
    I210000   N             0.210000   AM-N          0.210000   
    I210000   S             0.240000   DEN           0.067824   
    I210000   HCAP          0.390000   HSOL          0.748000   
    I210000   32F           1.415460   77F           1.309470   
    I210000   32FK         14.384600   77FK          8.708740   
    I210000   WT            1.000000   COST        110.000000   
    I210000   PRICE       130.000000   SCALE      2000.000000   
    I184600   N             0.180000   AM-N          0.180000   
    I184600   P             0.460000   DEN           0.074104   
    I184600   MINA         -0.032440   MAXA         -0.032400   
    I184600   HCAP          0.330000   HSOL          0.800000   
    I184600   32F           1.777780   77F           1.439020   
    I184600   32FK          1.777780   77FK          1.439020   
    I184600   WT            1.000000   COST        183.000000   
    I184600   PRICE       203.000000   SCALE      2000.000000   
    XXXXXXXX  COST          0.000000   PRICE         0.000000   
    XXXXXXXX  SCALE         1.000000   
    LASSO     WATR          0.995490   DEN           0.112360   
    LASSO     WT            1.000000   COST          0.012500   
    LASSO     PRICE         0.012500   SCALE         1.000000   
    PROWL33E  WATR          0.996260   DEN           0.112994   
    PROWL33E  WT            1.000000   COST         28.000000   
    PROWL33E  PRICE        28.000000   SCALE         8.850000   
    SQUADRON  WATR          0.997430   DEN           0.112994   
    SQUADRON  WT            1.000000   COST          4.750000   
    SQUADRON  PRICE         4.750000   SCALE         1.250000   
    XXXXXXXX  COST          0.000000   PRICE         0.000000   
    XXXXXXXX  SCALE         1.000000   
    HEATCAP   HCAP         -1.000000   MINT          0.150000   
    HEATCAP   MAXT          0.800000   COST          0.000000   
    HEATCAP   PRICE         0.000000   SCALE         1.000000   
    HEATSOL   HSOL         -2.000000   MINT         -1.000000   
    HEATSOL   MAXT          1.000000   COST          0.000000   
    HEATSOL   PRICE         0.000000   SCALE         1.000000   
    HEATREAC  HREA         -2.000000   MINT          1.000000   
    HEATREAC  MAXT         -1.000000   COST          0.000000   
    HEATREAC  PRICE         0.000000   SCALE         1.000000   
    HEATREA   HREA         -2.000000   MINT          1.000000   
    HEATREA   MAXT         -1.000000   COST          0.000000   
    HEATREA   PRICE         0.000000   SCALE         1.000000   
    PRODUCT   WT           -1.000000   COST          0.000000   
    PRODUCT   PRICE         0.000000   SCALE         1.000000   
*234567890123456789012345678901234567890123456789012345678901
RHS
RANGES
ENDATA
